extern Integer $int$;

interface IRGBLed {
	in void setRed();
	in void setGreen();
	in void setBlue();
	
	in void setSpecificRed(Integer newValue);
	in void setSpecificGreen(Integer newValue);
	in void setSpecificBlue(Integer newValue);
	
	behaviour {
		on setRed: {}
		on setGreen: {}
		on setBlue: {}
		
		on setSpecificRed: {}
		on setSpecificGreen: {}
		on setSpecificBlue: {}
	}
}